p cnf 20 20
14 -6 8 0
-1 15 -19 0
-18 15 -2 0
-14 4 5 0
-11 -1 7 0
-17 -3 8 0
4 2 -17 0
-11 -9 -13 0
-5 -15 -2 0
2 -4 14 0
17 11 -5 0
19 -16 -20 0
2 10 -4 0
-15 11 -4 0
-8 18 10 0
8 2 -11 0
2 -11 15 0
-10 7 4 0
-9 15 -3 0
9 -3 19 0
